NAME : cgl_114.11220.tour
COMMENT : Length = 11220
COMMENT : Found by LKH-3 [Keld Helsgaun] Fri Nov  8 19:20:31 2024
TYPE : TOUR
DIMENSION : 114
TOUR_SECTION
93
59
63
70
92
83
69
89
80
79
61
64
84
53
77
55
90
50
71
74
54
65
85
67
76
75
78
81
68
52
60
91
66
56
86
58
62
72
73
51
57
94
95
96
98
97
16
14
18
20
19
21
13
15
17
22
23
24
25
3
8
5
11
9
12
10
6
4
7
27
26
28
29
32
33
31
30
34
36
35
37
113
112
111
110
109
114
1
2
99
103
100
101
102
104
105
106
107
108
38
44
40
87
43
39
88
41
42
45
49
47
48
46
82
-1
EOF
